CPXPARAM_TimeLimit                               7200
CPXPARAM_Read_DataCheck                          1
CPXPARAM_Output_IntSolFilePrefix                 "solucoes/t_sol_ini_ID000M003J005_ZintTrue_liao/sol"
Tried aggregator 1 time.
Reduced MIP has 45 rows, 76 columns, and 150 nonzeros.
Reduced MIP has 30 binaries, 0 generals, 0 SOSs, and 0 indicators.
Presolve time = 0.00 sec. (0.06 ticks)
Found incumbent of value 69.000000 after 0.00 sec. (0.26 ticks)
Probing time = 0.00 sec. (0.01 ticks)
Tried aggregator 1 time.
Reduced MIP has 45 rows, 76 columns, and 150 nonzeros.
Reduced MIP has 30 binaries, 0 generals, 0 SOSs, and 0 indicators.
Presolve time = 0.00 sec. (0.09 ticks)
Probing time = 0.00 sec. (0.01 ticks)
MIP emphasis: balance optimality and feasibility.
MIP search method: dynamic search.
Parallel mode: deterministic, using up to 8 threads.
Root relaxation solution time = 0.00 sec. (0.11 ticks)

        Nodes                                         Cuts/
   Node  Left     Objective  IInf  Best Integer    Best Bound    ItCnt     Gap

*     0+    0                           69.0000       33.0000            52.17%
New incumbent written to file 'solucoes/t_sol_ini_ID000M003J005_ZintTrue_liao/sol-00001.sol'.
      0     0       33.0000    22       69.0000       33.0000       12   52.17%
      0     0       33.0000     9       69.0000      Cuts: 34       37   52.17%
*     0+    0                           55.0000       33.0000            40.00%
New incumbent written to file 'solucoes/t_sol_ini_ID000M003J005_ZintTrue_liao/sol-00002.sol'.
      0     0       33.0000     8       55.0000      Cuts: 36       58   40.00%
*     0+    0                           49.0000       33.0000            32.65%
New incumbent written to file 'solucoes/t_sol_ini_ID000M003J005_ZintTrue_liao/sol-00003.sol'.
      0     0       33.0000     5       49.0000      Cuts: 34       76   32.65%
*     0+    0                           45.0000       33.0000            26.67%
New incumbent written to file 'solucoes/t_sol_ini_ID000M003J005_ZintTrue_liao/sol-00004.sol'.
      0     0       33.0000     7       45.0000      Cuts: 33       96   26.67%
*     0+    0                           41.0000       33.0000            19.51%
New incumbent written to file 'solucoes/t_sol_ini_ID000M003J005_ZintTrue_liao/sol-00005.sol'.
*     0+    0                           33.0000       33.0000             0.00%
New incumbent written to file 'solucoes/t_sol_ini_ID000M003J005_ZintTrue_liao/sol-00006.sol'.
      0     0        cutoff             33.0000       33.0000       96    0.00%
Elapsed time = 0.01 sec. (3.61 ticks, tree = 0.01 MB, solutions = 6)

Implied bound cuts applied:  3
Flow cuts applied:  8
Mixed integer rounding cuts applied:  35
Gomory fractional cuts applied:  4

Root node processing (before b&c):
  Real time             =    0.01 sec. (3.62 ticks)
Parallel b&c, 8 threads:
  Real time             =    0.00 sec. (0.00 ticks)
  Sync time (average)   =    0.00 sec.
  Wait time (average)   =    0.00 sec.
                          ------------
Total (root+branch&cut) =    0.01 sec. (3.62 ticks)
